# Solution for model FSG
# Objective value = 6.0782253679638472e+02
x_0_1 0
x_0_2 0
x_0_3 0
x_0_4 0
x_0_5 1
x_0_6 1
x_0_7 0
x_0_8 0
x_0_9 0
x_1_2 0
x_1_3 0
x_1_4 0
x_1_5 0
x_1_6 0
x_1_7 1
x_1_8 0
x_1_9 0
x_2_1 0
x_2_3 0
x_2_4 1
x_2_5 0
x_2_6 0
x_2_7 0
x_2_8 0
x_2_9 0
x_3_1 1
x_3_2 0
x_3_4 0
x_3_5 0
x_3_6 0
x_3_7 0
x_3_8 0
x_3_9 0
x_4_1 0
x_4_2 0
x_4_3 0
x_4_5 0
x_4_6 0
x_4_7 0
x_4_8 0
x_4_9 1
x_5_1 0
x_5_2 0
x_5_3 1
x_5_4 0
x_5_6 0
x_5_7 0
x_5_8 0
x_5_9 0
x_6_1 0
x_6_2 1
x_6_3 0
x_6_4 0
x_6_5 0
x_6_7 0
x_6_8 0
x_6_9 0
x_7_1 0
x_7_2 0
x_7_3 0
x_7_4 0
x_7_5 0
x_7_6 0
x_7_8 1
x_7_9 0
U_1_1 0
U_1_2 1
U_1_3 0
U_2_1 0
U_2_2 1
U_2_3 0
U_3_1 0
U_3_2 1
U_3_3 0
U_4_1 0
U_4_2 1
U_4_3 0
U_5_1 0
U_5_2 1
U_5_3 0
U_6_1 1
U_6_2 0
U_6_3 0
U_7_1 0
U_7_2 0
U_7_3 1
U_8_1 0
U_8_2 0
U_8_3 1
U_9_1 0
U_9_2 0
U_9_3 1
TBar_0 0
TBar_1 2.1263726584136002e+01
TBar_2 1.9032790597092784e+01
TBar_3 1.6190965994476755e+01
TBar_4 30
TBar_5 15
TBar_6 4.9350683885838933e+00
TBar_7 30
TBar_8 4.0891244189714968e+01
TBar_9 3.9442166065050962e+01
y_0_1_1 0
y_0_1_2 0
y_0_1_3 0
y_0_1_4 0
y_0_1_5 0
y_0_2_1 0
y_0_2_2 0
y_0_2_3 0
y_0_2_4 0
y_0_2_5 0
y_0_3_1 0
y_0_3_2 0
y_0_3_3 0
y_0_3_4 0
y_0_3_5 0
y_0_4_1 0
y_0_4_2 0
y_0_4_3 0
y_0_4_4 0
y_0_4_5 0
y_0_5_1 0
y_0_5_2 0
y_0_5_3 0
y_0_5_4 0
y_0_5_5 0
y_0_6_1 0
y_0_6_2 0
y_0_6_3 0
y_0_6_4 0
y_0_6_5 0
y_0_7_1 0
y_0_7_2 0
y_0_7_3 0
y_0_7_4 0
y_0_7_5 0
y_0_8_1 0
y_0_8_2 0
y_0_8_3 0
y_0_8_4 0
y_0_8_5 0
y_0_9_1 0
y_0_9_2 0
y_0_9_3 0
y_0_9_4 0
y_0_9_5 0
y_1_2_1 0
y_1_2_2 0
y_1_2_3 0
y_1_2_4 0
y_1_2_5 0
y_1_3_1 0
y_1_3_2 0
y_1_3_3 0
y_1_3_4 0
y_1_3_5 0
y_1_4_1 0
y_1_4_2 0
y_1_4_3 0
y_1_4_4 0
y_1_4_5 0
y_1_5_1 0
y_1_5_2 0
y_1_5_3 0
y_1_5_4 0
y_1_5_5 0
y_1_6_1 0
y_1_6_2 0
y_1_6_3 0
y_1_6_4 0
y_1_6_5 0
y_1_7_1 0
y_1_7_2 0
y_1_7_3 0
y_1_7_4 0
y_1_7_5 0
y_1_8_1 0
y_1_8_2 0
y_1_8_3 0
y_1_8_4 0
y_1_8_5 0
y_1_9_1 0
y_1_9_2 0
y_1_9_3 0
y_1_9_4 0
y_1_9_5 0
y_2_1_1 0
y_2_1_2 0
y_2_1_3 0
y_2_1_4 0
y_2_1_5 0
y_2_3_1 0
y_2_3_2 0
y_2_3_3 0
y_2_3_4 0
y_2_3_5 0
y_2_4_1 0
y_2_4_2 0
y_2_4_3 0
y_2_4_4 0
y_2_4_5 0
y_2_5_1 0
y_2_5_2 0
y_2_5_3 0
y_2_5_4 0
y_2_5_5 0
y_2_6_1 0
y_2_6_2 0
y_2_6_3 0
y_2_6_4 0
y_2_6_5 0
y_2_7_1 0
y_2_7_2 0
y_2_7_3 0
y_2_7_4 0
y_2_7_5 0
y_2_8_1 0
y_2_8_2 0
y_2_8_3 0
y_2_8_4 0
y_2_8_5 0
y_2_9_1 0
y_2_9_2 0
y_2_9_3 0
y_2_9_4 0
y_2_9_5 0
y_3_1_1 0
y_3_1_2 0
y_3_1_3 0
y_3_1_4 0
y_3_1_5 0
y_3_2_1 0
y_3_2_2 0
y_3_2_3 0
y_3_2_4 0
y_3_2_5 0
y_3_4_1 0
y_3_4_2 0
y_3_4_3 0
y_3_4_4 0
y_3_4_5 0
y_3_5_1 0
y_3_5_2 0
y_3_5_3 0
y_3_5_4 0
y_3_5_5 0
y_3_6_1 0
y_3_6_2 0
y_3_6_3 0
y_3_6_4 0
y_3_6_5 0
y_3_7_1 0
y_3_7_2 0
y_3_7_3 0
y_3_7_4 0
y_3_7_5 0
y_3_8_1 0
y_3_8_2 0
y_3_8_3 0
y_3_8_4 0
y_3_8_5 0
y_3_9_1 0
y_3_9_2 0
y_3_9_3 0
y_3_9_4 0
y_3_9_5 0
y_4_1_1 0
y_4_1_2 0
y_4_1_3 0
y_4_1_4 0
y_4_1_5 0
y_4_2_1 0
y_4_2_2 0
y_4_2_3 0
y_4_2_4 0
y_4_2_5 0
y_4_3_1 0
y_4_3_2 0
y_4_3_3 0
y_4_3_4 0
y_4_3_5 0
y_4_5_1 0
y_4_5_2 0
y_4_5_3 0
y_4_5_4 0
y_4_5_5 0
y_4_6_1 0
y_4_6_2 0
y_4_6_3 0
y_4_6_4 0
y_4_6_5 0
y_4_7_1 0
y_4_7_2 0
y_4_7_3 0
y_4_7_4 0
y_4_7_5 0
y_4_8_1 0
y_4_8_2 0
y_4_8_3 0
y_4_8_4 0
y_4_8_5 0
y_4_9_1 1
y_4_9_2 0
y_4_9_3 1
y_4_9_4 0
y_4_9_5 1
y_5_1_1 0
y_5_1_2 0
y_5_1_3 0
y_5_1_4 0
y_5_1_5 0
y_5_2_1 0
y_5_2_2 0
y_5_2_3 0
y_5_2_4 0
y_5_2_5 0
y_5_3_1 0
y_5_3_2 0
y_5_3_3 0
y_5_3_4 0
y_5_3_5 0
y_5_4_1 0
y_5_4_2 0
y_5_4_3 0
y_5_4_4 0
y_5_4_5 0
y_5_6_1 0
y_5_6_2 0
y_5_6_3 0
y_5_6_4 0
y_5_6_5 0
y_5_7_1 0
y_5_7_2 0
y_5_7_3 0
y_5_7_4 0
y_5_7_5 0
y_5_8_1 0
y_5_8_2 0
y_5_8_3 0
y_5_8_4 0
y_5_8_5 0
y_5_9_1 0
y_5_9_2 0
y_5_9_3 0
y_5_9_4 0
y_5_9_5 0
y_6_1_1 0
y_6_1_2 0
y_6_1_3 0
y_6_1_4 0
y_6_1_5 0
y_6_2_1 0
y_6_2_2 0
y_6_2_3 0
y_6_2_4 0
y_6_2_5 0
y_6_3_1 0
y_6_3_2 0
y_6_3_3 0
y_6_3_4 0
y_6_3_5 0
y_6_4_1 0
y_6_4_2 0
y_6_4_3 0
y_6_4_4 0
y_6_4_5 0
y_6_5_1 0
y_6_5_2 0
y_6_5_3 0
y_6_5_4 0
y_6_5_5 0
y_6_7_1 0
y_6_7_2 0
y_6_7_3 0
y_6_7_4 0
y_6_7_5 0
y_6_8_1 0
y_6_8_2 0
y_6_8_3 0
y_6_8_4 0
y_6_8_5 0
y_6_9_1 0
y_6_9_2 0
y_6_9_3 0
y_6_9_4 0
y_6_9_5 0
y_7_1_1 0
y_7_1_2 0
y_7_1_3 0
y_7_1_4 0
y_7_1_5 0
y_7_2_1 0
y_7_2_2 0
y_7_2_3 0
y_7_2_4 0
y_7_2_5 0
y_7_3_1 0
y_7_3_2 0
y_7_3_3 0
y_7_3_4 0
y_7_3_5 0
y_7_4_1 0
y_7_4_2 0
y_7_4_3 0
y_7_4_4 0
y_7_4_5 0
y_7_5_1 0
y_7_5_2 0
y_7_5_3 0
y_7_5_4 0
y_7_5_5 0
y_7_6_1 0
y_7_6_2 0
y_7_6_3 0
y_7_6_4 0
y_7_6_5 0
y_7_8_1 0
y_7_8_2 0
y_7_8_3 0
y_7_8_4 0
y_7_8_5 0
y_7_9_1 0
y_7_9_2 0
y_7_9_3 0
y_7_9_4 0
y_7_9_5 0
Q_0_1 0
Q_0_2 0
Q_0_3 0
Q_0_4 0
Q_0_5 0
Q_1_1 1.5181499999999994e+02
Q_1_2 1.4517499999999995e+02
Q_1_3 1.5534499999999994e+02
Q_1_4 1.6097499999999997e+02
Q_1_5 1.5350999999999993e+02
Q_2_1 1.3896000000000029e+02
Q_2_2 1.3563499999999979e+02
Q_2_3 1.3925500000000031e+02
Q_2_4 1.3398000000000027e+02
Q_2_5 1.3988000000000028e+02
Q_3_1 1.0037500000000009e+02
Q_3_2 102.2
Q_3_3 1.0038500000000006e+02
Q_3_4 1.0407500000000007e+02
Q_3_5 1.0028000000000006e+02
Q_4_1 2.0926000000000050e+02
Q_4_2 206.46
Q_4_3 2.0960500000000053e+02
Q_4_4 2.0540500000000048e+02
Q_4_5 2.1056000000000051e+02
Q_5_1 5.8379999999999420e+01
Q_5_2 5.2854999999999421e+01
Q_5_3 63
Q_5_4 6.2874999999999417e+01
Q_5_5 6.2814999999999415e+01
Q_6_1 4.5679999999999566e+01
Q_6_2 4.7479999999999563e+01
Q_6_3 4.5629999999999562e+01
Q_6_4 4.4984999999999566e+01
Q_6_5 4.6029999999999561e+01
Q_7_1 1.8416500000000082e+02
Q_7_2 1.7741500000000082e+02
Q_7_3 1.9970500000000081e+02
Q_7_4 1.9187000000000083e+02
Q_7_5 1.9733500000000083e+02
Q_8_1 1.8416500000000082e+02
Q_8_2 1.7741500000000082e+02
Q_8_3 1.9970500000000081e+02
Q_8_4 1.9187000000000083e+02
Q_8_5 1.9733500000000083e+02
Q_9_1 2.0926000000000050e+02
Q_9_2 206.46
Q_9_3 2.0960500000000053e+02
Q_9_4 2.0540500000000048e+02
Q_9_5 2.1056000000000051e+02
R_8_1 0
R_8_2 0
R_8_3 0
R_8_4 0
R_8_5 0
R_9_1 9.2600000000005025e+00
R_9_2 6.4600000000000080e+00
R_9_3 9.60500000000053
R_9_4 5.4050000000004843e+00
R_9_5 1.0560000000000514e+01
L_1_1 4.86
L_1_2 3.005
L_1_3 4.67
L_1_4 5.555
L_1_5 7.065
L_2_1 11.68
L_2_2 5.01
L_2_3 9.94
L_2_4 13.68
L_2_5 7.44
L_3_1 5.04
L_3_2 7.165
L_3_3 3.045
L_3_4 5.255
L_3_5 6.035
L_4_1 3.95
L_4_2 3.445
L_4_3 3.435
L_4_4 5.565
L_4_5 5.785
L_5_1 6.025
L_5_2 3.88
L_5_3 6.56
L_5_4 6.745
L_5_5 6.975
L_6_1 17.34
L_6_2 18.385
L_6_3 19.915
L_6_4 10.34
L_6_5 17.875
L_7_1 0
L_7_2 0
L_7_3 0
L_7_4 0
L_7_5 0
rho_1_1 0
rho_1_2 0
rho_1_3 0
rho_1_4 0
rho_1_5 0
rho_2_1 0
rho_2_2 0
rho_2_3 0
rho_2_4 0
rho_2_5 0
rho_3_1 0
rho_3_2 0
rho_3_3 0
rho_3_4 0
rho_3_5 0
rho_4_1 1
rho_4_2 1
rho_4_3 1
rho_4_4 1
rho_4_5 1
rho_5_1 0
rho_5_2 0
rho_5_3 0
rho_5_4 0
rho_5_5 0
rho_6_1 0
rho_6_2 0
rho_6_3 0
rho_6_4 0
rho_6_5 0
rho_7_1 0
rho_7_2 0
rho_7_3 0
rho_7_4 0
rho_7_5 0
lambd_1_1 0
lambd_1_2 0
lambd_1_3 0
lambd_1_4 0
lambd_1_5 0
lambd_2_1 0
lambd_2_2 0
lambd_2_3 0
lambd_2_4 0
lambd_2_5 0
lambd_3_1 0
lambd_3_2 0
lambd_3_3 0
lambd_3_4 0
lambd_3_5 0
lambd_4_1 0
lambd_4_2 0
lambd_4_3 0
lambd_4_4 0
lambd_4_5 0
lambd_5_1 0
lambd_5_2 0
lambd_5_3 0
lambd_5_4 0
lambd_5_5 0
lambd_6_1 0
lambd_6_2 0
lambd_6_3 0
lambd_6_4 0
lambd_6_5 0
lambd_7_1 0
lambd_7_2 0
lambd_7_3 0
lambd_7_4 0
lambd_7_5 0
alpha_1_1 0
alpha_1_2 0
alpha_1_3 0
alpha_1_4 0
alpha_1_5 0
alpha_2_1 0
alpha_2_2 0
alpha_2_3 0
alpha_2_4 0
alpha_2_5 0
alpha_3_1 0
alpha_3_2 0
alpha_3_3 0
alpha_3_4 0
alpha_3_5 0
alpha_4_1 1
alpha_4_2 0
alpha_4_3 1
alpha_4_4 0
alpha_4_5 1
alpha_5_1 0
alpha_5_2 0
alpha_5_3 0
alpha_5_4 0
alpha_5_5 0
alpha_6_1 0
alpha_6_2 0
alpha_6_3 0
alpha_6_4 0
alpha_6_5 0
alpha_7_1 0
alpha_7_2 0
alpha_7_3 0
alpha_7_4 0
alpha_7_5 0
